problem_generation/data/GISP/train/er_n=63_m=1162_p=0.60_SET2_setparam=100.00_alpha=0.50_111.lp
maximize
OBJ:100x0 + 100x1 + 100x2 + 100x3 + 100x4 + 100x5 + 100x6 + 100x7 + 100x8 + 100x9 + 100x10 + 100x11 + 100x12 + 100x13 + 100x14 + 100x15 + 100x16 + 100x17 + 100x18 + 100x19 + 100x20 + 100x21 + 100x22 + 100x23 + 100x24 + 100x25 + 100x26 + 100x27 + 100x28 + 100x29 + 100x30 + 100x31 + 100x32 + 100x33 + 100x34 + 100x35 + 100x36 + 100x37 + 100x38 + 100x39 + 100x40 + 100x41 + 100x42 + 100x43 + 100x44 + 100x45 + 100x46 + 100x47 + 100x48 + 100x49 + 100x50 + 100x51 + 100x52 + 100x53 + 100x54 + 100x55 + 100x56 + 100x57 + 100x58 + 100x59 + 100x60 + 100x61 + 100x62 - y7_26 - y15_39 - y17_58 - y26_39 - y18_35 - y28_58 - y18_44 - y0_5 - y40_41 - y8_18 - y0_14 - y29_50 - y6_57 - y10_27 - y41_42 - y33_47 - y33_56 - y3_15 - y22_28 - y14_24 - y43_60 - y22_37 - y14_42 - y14_51 - y55_61 - y17_44 - y7_30 - y28_62 - y29_36 - y21_41 - y6_52 - y40_54 - y2_27 - y25_29 - y33_42 - y51_59 - y14_19 - y43_55 - y22_32 - y3_37 - y17_39 - y47_52 - y17_48 - y28_48 - y5_55 - y6_29 - y48_53 - y21_36 - y29_49 - y40_49 - y21_45 - y6_56 - y10_35 - y2_31 - y3_5 - y32_41 - y32_59 - y43_59 - y16_51 - y7_11 - y28_43 - y47_56 - y9_39 - y5_59 - y9_57 - y29_35 - y21_40 - y10_12 - y2_17 - y31_53 - y10_39 - y12_58 - y23_58 - y24_32 - y1_57 - y16_55 - y17_29 - y28_29 - y9_25 - y36_51 - y5_45 - y6_19 - y21_26 - y61_62 - y6_37 - y10_16 - y39_52 - y31_48 - y10_25 - y12_53 - y2_30 - y4_49 - y24_27 - y4_58 - y32_40 - y51_53 - y24_36 - y35_36 - y32_49 - y24_45 - y32_58 - y13_54 - y24_54 - y35_54 - y9_11 - y5_22 - y17_24 - y36_37 - y28_33 - y6_14 - y6_23 - y50_57 - y6_32 - y21_30 - y30_60 - y31_34 - y10_11 - y39_47 - y2_7 - y20_43 - y39_56 - y12_39 - y31_52 - y23_48 - y12_57 - y4_53 - y16_18 - y32_35 - y13_31 - y4_62 - y16_27 - y13_40 - y24_40 - y35_40 - y5_8 - y17_28 - y9_24 - y17_37 - y28_37 - y50_52 - y30_46 - y30_55 - y20_38 - y2_11 - y31_47 - y23_52 - y12_61 - y1_24 - y13_26 - y4_57 - y16_22 - y53_62 - y16_31 - y13_44 - y35_44 - y9_10 - y57_59 - y15_62 - y26_62 - y5_39 - y18_58 - y27_36 - y8_41 - y42_43 - y19_50 - y19_59 - y42_61 - y20_33 - y12_29 - y31_51 - y23_47 - y1_10 - y23_56 - y34_53 - y16_26 - y37_58 - y15_48 - y26_57 - y49_59 - y7_62 - y19_27 - y27_49 - y42_47 - y0_41 - y11_41 - y42_56 - y20_28 - y12_42 - y23_42 - y34_39 - y53_61 - y16_30 - y3_60 - y15_34 - y5_11 - y7_39 - y15_52 - y26_52 - y15_61 - y19_31 - y0_27 - y11_27 - y8_40 - y30_49 - y41_46 - y30_58 - y20_23 - y20_32 - y31_32 - y12_37 - y4_33 - y45_52 - y3_46 - y14_46 - y37_48 - y56_61 - y3_55 - y18_25 - y7_34 - y38_49 - y0_4 - y0_13 - y11_22 - y8_44 - y30_44 - y41_50 - y4_10 - y44_46 - y25_51 - y4_28 - y22_36 - y22_45 - y34_47 - y14_41 - y45_56 - y14_59 - y15_24 - y26_33 - y7_47 - y8_12 - y8_21 - y29_53 - y19_30 - y6_60 - y11_26 - y40_62 - y0_35 - y52_54 - y25_37 - y33_59 - y22_40 - y37_38 - y45_51 - y37_47 - y22_58 - y15_28 - y36_60 - y47_60 - y59_62 - y7_33 - y8_16 - y48_52 - y40_48 - y6_55 - y21_53 - y21_62 - y10_34 - y25_32 - y33_45 - y25_41 - y25_50 - y3_13 - y10_61 - y2_57 - y3_22 - y22_35 - y3_31 - y14_31 - y14_49 - y7_10 - y15_23 - y18_19 - y47_55 - y15_32 - y26_32 - y28_51 - y17_60 - y29_34 - y0_7 - y29_43 - y6_59 - y41_44 - y2_34 - y10_47 - y2_43 - y10_56 - y25_54 - y3_17 - y2_61 - y14_26 - y32_62 - y22_39 - y24_58 - y14_35 - y15_18 - y7_14 - y17_46 - y36_59 - y5_53 - y28_55 - y6_45 - y10_15 - y10_24 - y2_29 - y2_38 - y25_40 - y10_51 - y43_48 - y17_32 - y28_32 - y7_9 - y55_58 - y17_41 - y6_22 - y6_40 - y29_42 - y40_51 - y2_6 - y10_19 - y2_15 - y2_24 - y20_60 - y24_39 - y32_52 - y43_52 - y13_48 - y14_25 - y16_44 - y32_61 - y43_61 - y16_62 - y36_40 - y5_34 - y28_36 - y47_49 - y36_58 - y28_54 - y21_24 - y6_44 - y21_42 - y10_23 - y2_19 - y31_55 - y54_57 - y2_28 - y32_47 - y35_43 - y32_56 - y16_39 - y35_61 - y16_57 - y5_20 - y17_22 - y17_31 - y28_31 - y5_38 - y28_40 - y58_59 - y21_28 - y42_60 - y2_5 - y39_54 - y54_61 - y23_55 - y32_33 - y24_29 - y1_36 - y35_38 - y43_51 - y16_34 - y35_47 - y9_22 - y49_58 - y5_33 - y28_35 - y9_31 - y28_44 - y6_7 - y27_48 - y42_46 - y19_53 - y30_53 - y42_55 - y8_62 - y11_58 - y39_40 - y10_13 - y23_32 - y39_49 - y31_54 - y12_59 - y1_22 - y4_55 - y1_49 - y1_58 - y17_21 - y46_57 - y17_30 - y15_60 - y26_60 - y5_37 - y38_62 - y9_35 - y6_11 - y27_43 - y19_39 - y30_39 - y27_52 - y19_48 - y42_50 - y0_44 - y11_44 - y12_18 - y11_62 - y23_27 - y20_40 - y4_32 - y12_54 - y23_54 - y4_50 - y34_60 - y1_35 - y24_37 - y1_44 - y15_46 - y9_21 - y38_57 - y7_51 - y8_25 - y27_38 - y19_34 - y8_43 - y19_43 - y30_43 - y42_45 - y12_22 - y23_31 - y20_44 - y4_27 - y31_44 - y12_40 - y4_36 - y23_49 - y45_55 - y1_30 - y3_58 - y5_18 - y9_16 - y38_52 - y15_59 - y26_59 - y7_55 - y18_55 - y27_33 - y19_38 - y0_34 - y30_47 - y42_49 - y8_56 - y0_52 - y52_53 - y0_61 - y4_40 - y34_41 - y13_18 - y34_50 - y34_59 - y14_53 - y5_13 - y15_45 - y26_45 - y38_47 - y7_41 - y49_56 - y7_50 - y18_50 - y27_28 - y27_37 - y0_20 - y8_33 - y30_42 - y30_51 - y0_47 - y11_47 - y60_61 - y41_57 - y52_57 - y33_53 - y44_53 - y23_30 - y4_26 - y10_60 - y33_62 - y25_58 - y44_62 - y34_36 - y1_11 - y34_45 - y45_54 - y3_48 - y22_61 - y15_22 - y7_18 - y26_31 - y7_27 - y15_49 - y15_58 - y18_54 - y11_15 - y8_28 - y11_24 - y29_60 - y21_56 - y41_43 - y52_61 - y33_57 - y25_53 - y2_60 - y22_38 - y34_40 - y14_34 - y34_49 - y3_52 - y7_13 - y14_61 - y18_22 - y26_35 - y18_40 - y7_49 - y48_50 - y29_46 - y40_55 - y0_28 - y25_30 - y25_39 - y33_52 - y44_52 - y25_48 - y44_61 - y14_38 - y7_8 - y3_56
 Subject to
C1: x0+x2 <=1 
C2: x0+x4-y0_4 <=1 
C3: x0+x5-y0_5 <=1 
C4: x0+x7-y0_7 <=1 
C5: x0+x8 <=1 
C6: x0+x9 <=1 
C7: x0+x10 <=1 
C8: x0+x12 <=1 
C9: x0+x13-y0_13 <=1 
C10: x0+x14-y0_14 <=1 
C11: x0+x15 <=1 
C12: x0+x18 <=1 
C13: x0+x20-y0_20 <=1 
C14: x0+x22 <=1 
C15: x0+x23 <=1 
C16: x0+x24 <=1 
C17: x0+x27-y0_27 <=1 
C18: x0+x28-y0_28 <=1 
C19: x0+x29 <=1 
C20: x0+x30 <=1 
C21: x0+x31 <=1 
C22: x0+x34-y0_34 <=1 
C23: x0+x35-y0_35 <=1 
C24: x0+x41-y0_41 <=1 
C25: x0+x42 <=1 
C26: x0+x44-y0_44 <=1 
C27: x0+x47-y0_47 <=1 
C28: x0+x49 <=1 
C29: x0+x52-y0_52 <=1 
C30: x0+x53 <=1 
C31: x0+x55 <=1 
C32: x0+x56 <=1 
C33: x0+x59 <=1 
C34: x0+x61-y0_61 <=1 
C35: x1+x2 <=1 
C36: x1+x4 <=1 
C37: x1+x7 <=1 
C38: x1+x10-y1_10 <=1 
C39: x1+x11-y1_11 <=1 
C40: x1+x12 <=1 
C41: x1+x13 <=1 
C42: x1+x14 <=1 
C43: x1+x15 <=1 
C44: x1+x17 <=1 
C45: x1+x18 <=1 
C46: x1+x20 <=1 
C47: x1+x22-y1_22 <=1 
C48: x1+x24-y1_24 <=1 
C49: x1+x26 <=1 
C50: x1+x27 <=1 
C51: x1+x28 <=1 
C52: x1+x29 <=1 
C53: x1+x30-y1_30 <=1 
C54: x1+x32 <=1 
C55: x1+x35-y1_35 <=1 
C56: x1+x36-y1_36 <=1 
C57: x1+x37 <=1 
C58: x1+x39 <=1 
C59: x1+x41 <=1 
C60: x1+x42 <=1 
C61: x1+x43 <=1 
C62: x1+x44-y1_44 <=1 
C63: x1+x45 <=1 
C64: x1+x47 <=1 
C65: x1+x48 <=1 
C66: x1+x49-y1_49 <=1 
C67: x1+x50 <=1 
C68: x1+x51 <=1 
C69: x1+x52 <=1 
C70: x1+x53 <=1 
C71: x1+x56 <=1 
C72: x1+x57-y1_57 <=1 
C73: x1+x58-y1_58 <=1 
C74: x1+x60 <=1 
C75: x1+x61 <=1 
C76: x1+x62 <=1 
C77: x2+x3 <=1 
C78: x2+x5-y2_5 <=1 
C79: x2+x6-y2_6 <=1 
C80: x2+x7-y2_7 <=1 
C81: x2+x11-y2_11 <=1 
C82: x2+x12 <=1 
C83: x2+x14 <=1 
C84: x2+x15-y2_15 <=1 
C85: x2+x16 <=1 
C86: x2+x17-y2_17 <=1 
C87: x2+x18 <=1 
C88: x2+x19-y2_19 <=1 
C89: x2+x23 <=1 
C90: x2+x24-y2_24 <=1 
C91: x2+x26 <=1 
C92: x2+x27-y2_27 <=1 
C93: x2+x28-y2_28 <=1 
C94: x2+x29-y2_29 <=1 
C95: x2+x30-y2_30 <=1 
C96: x2+x31-y2_31 <=1 
C97: x2+x33 <=1 
C98: x2+x34-y2_34 <=1 
C99: x2+x35 <=1 
C100: x2+x37 <=1 
C101: x2+x38-y2_38 <=1 
C102: x2+x42 <=1 
C103: x2+x43-y2_43 <=1 
C104: x2+x44 <=1 
C105: x2+x46 <=1 
C106: x2+x48 <=1 
C107: x2+x53 <=1 
C108: x2+x57-y2_57 <=1 
C109: x2+x60-y2_60 <=1 
C110: x2+x61-y2_61 <=1 
C111: x2+x62 <=1 
C112: x3+x5-y3_5 <=1 
C113: x3+x7 <=1 
C114: x3+x8 <=1 
C115: x3+x11 <=1 
C116: x3+x12 <=1 
C117: x3+x13-y3_13 <=1 
C118: x3+x15-y3_15 <=1 
C119: x3+x16 <=1 
C120: x3+x17-y3_17 <=1 
C121: x3+x21 <=1 
C122: x3+x22-y3_22 <=1 
C123: x3+x23 <=1 
C124: x3+x25 <=1 
C125: x3+x27 <=1 
C126: x3+x28 <=1 
C127: x3+x30 <=1 
C128: x3+x31-y3_31 <=1 
C129: x3+x32 <=1 
C130: x3+x33 <=1 
C131: x3+x37-y3_37 <=1 
C132: x3+x38 <=1 
C133: x3+x39 <=1 
C134: x3+x40 <=1 
C135: x3+x41 <=1 
C136: x3+x43 <=1 
C137: x3+x44 <=1 
C138: x3+x46-y3_46 <=1 
C139: x3+x47 <=1 
C140: x3+x48-y3_48 <=1 
C141: x3+x50 <=1 
C142: x3+x52-y3_52 <=1 
C143: x3+x54 <=1 
C144: x3+x55-y3_55 <=1 
C145: x3+x56-y3_56 <=1 
C146: x3+x58-y3_58 <=1 
C147: x3+x60-y3_60 <=1 
C148: x4+x6 <=1 
C149: x4+x7 <=1 
C150: x4+x8 <=1 
C151: x4+x9 <=1 
C152: x4+x10-y4_10 <=1 
C153: x4+x15 <=1 
C154: x4+x16 <=1 
C155: x4+x18 <=1 
C156: x4+x20 <=1 
C157: x4+x26-y4_26 <=1 
C158: x4+x27-y4_27 <=1 
C159: x4+x28-y4_28 <=1 
C160: x4+x29 <=1 
C161: x4+x31 <=1 
C162: x4+x32-y4_32 <=1 
C163: x4+x33-y4_33 <=1 
C164: x4+x35 <=1 
C165: x4+x36-y4_36 <=1 
C166: x4+x40-y4_40 <=1 
C167: x4+x41 <=1 
C168: x4+x43 <=1 
C169: x4+x44 <=1 
C170: x4+x45 <=1 
C171: x4+x48 <=1 
C172: x4+x49-y4_49 <=1 
C173: x4+x50-y4_50 <=1 
C174: x4+x51 <=1 
C175: x4+x52 <=1 
C176: x4+x53-y4_53 <=1 
C177: x4+x55-y4_55 <=1 
C178: x4+x56 <=1 
C179: x4+x57-y4_57 <=1 
C180: x4+x58-y4_58 <=1 
C181: x4+x60 <=1 
C182: x4+x61 <=1 
C183: x4+x62-y4_62 <=1 
C184: x5+x6 <=1 
C185: x5+x8-y5_8 <=1 
C186: x5+x11-y5_11 <=1 
C187: x5+x13-y5_13 <=1 
C188: x5+x16 <=1 
C189: x5+x18-y5_18 <=1 
C190: x5+x19 <=1 
C191: x5+x20-y5_20 <=1 
C192: x5+x22-y5_22 <=1 
C193: x5+x23 <=1 
C194: x5+x24 <=1 
C195: x5+x28 <=1 
C196: x5+x31 <=1 
C197: x5+x32 <=1 
C198: x5+x33-y5_33 <=1 
C199: x5+x34-y5_34 <=1 
C200: x5+x37-y5_37 <=1 
C201: x5+x38-y5_38 <=1 
C202: x5+x39-y5_39 <=1 
C203: x5+x43 <=1 
C204: x5+x44 <=1 
C205: x5+x45-y5_45 <=1 
C206: x5+x46 <=1 
C207: x5+x52 <=1 
C208: x5+x53-y5_53 <=1 
C209: x5+x54 <=1 
C210: x5+x55-y5_55 <=1 
C211: x5+x56 <=1 
C212: x5+x58 <=1 
C213: x5+x59-y5_59 <=1 
C214: x5+x62 <=1 
C215: x6+x7-y6_7 <=1 
C216: x6+x10 <=1 
C217: x6+x11-y6_11 <=1 
C218: x6+x13 <=1 
C219: x6+x14-y6_14 <=1 
C220: x6+x16 <=1 
C221: x6+x17 <=1 
C222: x6+x19-y6_19 <=1 
C223: x6+x20 <=1 
C224: x6+x21 <=1 
C225: x6+x22-y6_22 <=1 
C226: x6+x23-y6_23 <=1 
C227: x6+x24 <=1 
C228: x6+x26 <=1 
C229: x6+x28 <=1 
C230: x6+x29-y6_29 <=1 
C231: x6+x30 <=1 
C232: x6+x32-y6_32 <=1 
C233: x6+x33 <=1 
C234: x6+x34 <=1 
C235: x6+x37-y6_37 <=1 
C236: x6+x40-y6_40 <=1 
C237: x6+x41 <=1 
C238: x6+x43 <=1 
C239: x6+x44-y6_44 <=1 
C240: x6+x45-y6_45 <=1 
C241: x6+x47 <=1 
C242: x6+x48 <=1 
C243: x6+x50 <=1 
C244: x6+x52-y6_52 <=1 
C245: x6+x53 <=1 
C246: x6+x55-y6_55 <=1 
C247: x6+x56-y6_56 <=1 
C248: x6+x57-y6_57 <=1 
C249: x6+x59-y6_59 <=1 
C250: x6+x60-y6_60 <=1 
C251: x6+x61 <=1 
C252: x7+x8-y7_8 <=1 
C253: x7+x9-y7_9 <=1 
C254: x7+x10-y7_10 <=1 
C255: x7+x11-y7_11 <=1 
C256: x7+x13-y7_13 <=1 
C257: x7+x14-y7_14 <=1 
C258: x7+x16 <=1 
C259: x7+x17 <=1 
C260: x7+x18-y7_18 <=1 
C261: x7+x19 <=1 
C262: x7+x23 <=1 
C263: x7+x26-y7_26 <=1 
C264: x7+x27-y7_27 <=1 
C265: x7+x29 <=1 
C266: x7+x30-y7_30 <=1 
C267: x7+x32 <=1 
C268: x7+x33-y7_33 <=1 
C269: x7+x34-y7_34 <=1 
C270: x7+x35 <=1 
C271: x7+x36 <=1 
C272: x7+x39-y7_39 <=1 
C273: x7+x40 <=1 
C274: x7+x41-y7_41 <=1 
C275: x7+x45 <=1 
C276: x7+x46 <=1 
C277: x7+x47-y7_47 <=1 
C278: x7+x48 <=1 
C279: x7+x49-y7_49 <=1 
C280: x7+x50-y7_50 <=1 
C281: x7+x51-y7_51 <=1 
C282: x7+x55-y7_55 <=1 
C283: x7+x57 <=1 
C284: x7+x58 <=1 
C285: x7+x61 <=1 
C286: x7+x62-y7_62 <=1 
C287: x8+x10 <=1 
C288: x8+x11 <=1 
C289: x8+x12-y8_12 <=1 
C290: x8+x13 <=1 
C291: x8+x16-y8_16 <=1 
C292: x8+x18-y8_18 <=1 
C293: x8+x20 <=1 
C294: x8+x21-y8_21 <=1 
C295: x8+x23 <=1 
C296: x8+x25-y8_25 <=1 
C297: x8+x27 <=1 
C298: x8+x28-y8_28 <=1 
C299: x8+x33-y8_33 <=1 
C300: x8+x34 <=1 
C301: x8+x35 <=1 
C302: x8+x38 <=1 
C303: x8+x40-y8_40 <=1 
C304: x8+x41-y8_41 <=1 
C305: x8+x43-y8_43 <=1 
C306: x8+x44-y8_44 <=1 
C307: x8+x50 <=1 
C308: x8+x51 <=1 
C309: x8+x52 <=1 
C310: x8+x55 <=1 
C311: x8+x56-y8_56 <=1 
C312: x8+x58 <=1 
C313: x8+x60 <=1 
C314: x8+x62-y8_62 <=1 
C315: x9+x10-y9_10 <=1 
C316: x9+x11-y9_11 <=1 
C317: x9+x12 <=1 
C318: x9+x13 <=1 
C319: x9+x14 <=1 
C320: x9+x16-y9_16 <=1 
C321: x9+x21-y9_21 <=1 
C322: x9+x22-y9_22 <=1 
C323: x9+x24-y9_24 <=1 
C324: x9+x25-y9_25 <=1 
C325: x9+x28 <=1 
C326: x9+x29 <=1 
C327: x9+x30 <=1 
C328: x9+x31-y9_31 <=1 
C329: x9+x32 <=1 
C330: x9+x33 <=1 
C331: x9+x34 <=1 
C332: x9+x35-y9_35 <=1 
C333: x9+x38 <=1 
C334: x9+x39-y9_39 <=1 
C335: x9+x40 <=1 
C336: x9+x45 <=1 
C337: x9+x48 <=1 
C338: x9+x49 <=1 
C339: x9+x52 <=1 
C340: x9+x53 <=1 
C341: x9+x54 <=1 
C342: x9+x55 <=1 
C343: x9+x57-y9_57 <=1 
C344: x9+x60 <=1 
C345: x9+x62 <=1 
C346: x10+x11-y10_11 <=1 
C347: x10+x12-y10_12 <=1 
C348: x10+x13-y10_13 <=1 
C349: x10+x14 <=1 
C350: x10+x15-y10_15 <=1 
C351: x10+x16-y10_16 <=1 
C352: x10+x19-y10_19 <=1 
C353: x10+x20 <=1 
C354: x10+x21 <=1 
C355: x10+x22 <=1 
C356: x10+x23-y10_23 <=1 
C357: x10+x24-y10_24 <=1 
C358: x10+x25-y10_25 <=1 
C359: x10+x27-y10_27 <=1 
C360: x10+x30 <=1 
C361: x10+x31 <=1 
C362: x10+x33 <=1 
C363: x10+x34-y10_34 <=1 
C364: x10+x35-y10_35 <=1 
C365: x10+x37 <=1 
C366: x10+x38 <=1 
C367: x10+x39-y10_39 <=1 
C368: x10+x42 <=1 
C369: x10+x45 <=1 
C370: x10+x46 <=1 
C371: x10+x47-y10_47 <=1 
C372: x10+x48 <=1 
C373: x10+x50 <=1 
C374: x10+x51-y10_51 <=1 
C375: x10+x53 <=1 
C376: x10+x56-y10_56 <=1 
C377: x10+x58 <=1 
C378: x10+x60-y10_60 <=1 
C379: x10+x61-y10_61 <=1 
C380: x11+x13 <=1 
C381: x11+x15-y11_15 <=1 
C382: x11+x22-y11_22 <=1 
C383: x11+x24-y11_24 <=1 
C384: x11+x26-y11_26 <=1 
C385: x11+x27-y11_27 <=1 
C386: x11+x29 <=1 
C387: x11+x33 <=1 
C388: x11+x34 <=1 
C389: x11+x35 <=1 
C390: x11+x36 <=1 
C391: x11+x38 <=1 
C392: x11+x39 <=1 
C393: x11+x41-y11_41 <=1 
C394: x11+x42 <=1 
C395: x11+x44-y11_44 <=1 
C396: x11+x45 <=1 
C397: x11+x47-y11_47 <=1 
C398: x11+x50 <=1 
C399: x11+x51 <=1 
C400: x11+x55 <=1 
C401: x11+x56 <=1 
C402: x11+x57 <=1 
C403: x11+x58-y11_58 <=1 
C404: x11+x62-y11_62 <=1 
C405: x12+x14 <=1 
C406: x12+x15 <=1 
C407: x12+x18-y12_18 <=1 
C408: x12+x19 <=1 
C409: x12+x20 <=1 
C410: x12+x22-y12_22 <=1 
C411: x12+x23 <=1 
C412: x12+x25 <=1 
C413: x12+x27 <=1 
C414: x12+x29-y12_29 <=1 
C415: x12+x32 <=1 
C416: x12+x36 <=1 
C417: x12+x37-y12_37 <=1 
C418: x12+x39-y12_39 <=1 
C419: x12+x40-y12_40 <=1 
C420: x12+x42-y12_42 <=1 
C421: x12+x43 <=1 
C422: x12+x47 <=1 
C423: x12+x48 <=1 
C424: x12+x49 <=1 
C425: x12+x51 <=1 
C426: x12+x53-y12_53 <=1 
C427: x12+x54-y12_54 <=1 
C428: x12+x57-y12_57 <=1 
C429: x12+x58-y12_58 <=1 
C430: x12+x59-y12_59 <=1 
C431: x12+x61-y12_61 <=1 
C432: x13+x16 <=1 
C433: x13+x17 <=1 
C434: x13+x18-y13_18 <=1 
C435: x13+x19 <=1 
C436: x13+x20 <=1 
C437: x13+x22 <=1 
C438: x13+x23 <=1 
C439: x13+x26-y13_26 <=1 
C440: x13+x29 <=1 
C441: x13+x30 <=1 
C442: x13+x31-y13_31 <=1 
C443: x13+x32 <=1 
C444: x13+x33 <=1 
C445: x13+x35 <=1 
C446: x13+x36 <=1 
C447: x13+x40-y13_40 <=1 
C448: x13+x43 <=1 
C449: x13+x44-y13_44 <=1 
C450: x13+x45 <=1 
C451: x13+x48-y13_48 <=1 
C452: x13+x52 <=1 
C453: x13+x54-y13_54 <=1 
C454: x13+x56 <=1 
C455: x13+x57 <=1 
C456: x13+x58 <=1 
C457: x13+x59 <=1 
C458: x13+x60 <=1 
C459: x13+x61 <=1 
C460: x13+x62 <=1 
C461: x14+x15 <=1 
C462: x14+x16 <=1 
C463: x14+x17 <=1 
C464: x14+x18 <=1 
C465: x14+x19-y14_19 <=1 
C466: x14+x21 <=1 
C467: x14+x23 <=1 
C468: x14+x24-y14_24 <=1 
C469: x14+x25-y14_25 <=1 
C470: x14+x26-y14_26 <=1 
C471: x14+x27 <=1 
C472: x14+x28 <=1 
C473: x14+x29 <=1 
C474: x14+x31-y14_31 <=1 
C475: x14+x34-y14_34 <=1 
C476: x14+x35-y14_35 <=1 
C477: x14+x37 <=1 
C478: x14+x38-y14_38 <=1 
C479: x14+x39 <=1 
C480: x14+x40 <=1 
C481: x14+x41-y14_41 <=1 
C482: x14+x42-y14_42 <=1 
C483: x14+x44 <=1 
C484: x14+x46-y14_46 <=1 
C485: x14+x47 <=1 
C486: x14+x49-y14_49 <=1 
C487: x14+x50 <=1 
C488: x14+x51-y14_51 <=1 
C489: x14+x52 <=1 
C490: x14+x53-y14_53 <=1 
C491: x14+x54 <=1 
C492: x14+x57 <=1 
C493: x14+x59-y14_59 <=1 
C494: x14+x61-y14_61 <=1 
C495: x14+x62 <=1 
C496: x15+x18-y15_18 <=1 
C497: x15+x19 <=1 
C498: x15+x20 <=1 
C499: x15+x22-y15_22 <=1 
C500: x15+x23-y15_23 <=1 
C501: x15+x24-y15_24 <=1 
C502: x15+x25 <=1 
C503: x15+x28-y15_28 <=1 
C504: x15+x29 <=1 
C505: x15+x30 <=1 
C506: x15+x31 <=1 
C507: x15+x32-y15_32 <=1 
C508: x15+x33 <=1 
C509: x15+x34-y15_34 <=1 
C510: x15+x35 <=1 
C511: x15+x38 <=1 
C512: x15+x39-y15_39 <=1 
C513: x15+x41 <=1 
C514: x15+x43 <=1 
C515: x15+x45-y15_45 <=1 
C516: x15+x46-y15_46 <=1 
C517: x15+x47 <=1 
C518: x15+x48-y15_48 <=1 
C519: x15+x49-y15_49 <=1 
C520: x15+x50 <=1 
C521: x15+x52-y15_52 <=1 
C522: x15+x53 <=1 
C523: x15+x54 <=1 
C524: x15+x56 <=1 
C525: x15+x57 <=1 
C526: x15+x58-y15_58 <=1 
C527: x15+x59-y15_59 <=1 
C528: x15+x60-y15_60 <=1 
C529: x15+x61-y15_61 <=1 
C530: x15+x62-y15_62 <=1 
C531: x16+x17 <=1 
C532: x16+x18-y16_18 <=1 
C533: x16+x19 <=1 
C534: x16+x20 <=1 
C535: x16+x22-y16_22 <=1 
C536: x16+x25 <=1 
C537: x16+x26-y16_26 <=1 
C538: x16+x27-y16_27 <=1 
C539: x16+x30-y16_30 <=1 
C540: x16+x31-y16_31 <=1 
C541: x16+x32 <=1 
C542: x16+x34-y16_34 <=1 
C543: x16+x35 <=1 
C544: x16+x36 <=1 
C545: x16+x39-y16_39 <=1 
C546: x16+x42 <=1 
C547: x16+x43 <=1 
C548: x16+x44-y16_44 <=1 
C549: x16+x46 <=1 
C550: x16+x51-y16_51 <=1 
C551: x16+x52 <=1 
C552: x16+x53 <=1 
C553: x16+x54 <=1 
C554: x16+x55-y16_55 <=1 
C555: x16+x57-y16_57 <=1 
C556: x16+x58 <=1 
C557: x16+x62-y16_62 <=1 
C558: x17+x18 <=1 
C559: x17+x19 <=1 
C560: x17+x21-y17_21 <=1 
C561: x17+x22-y17_22 <=1 
C562: x17+x24-y17_24 <=1 
C563: x17+x28-y17_28 <=1 
C564: x17+x29-y17_29 <=1 
C565: x17+x30-y17_30 <=1 
C566: x17+x31-y17_31 <=1 
C567: x17+x32-y17_32 <=1 
C568: x17+x33 <=1 
C569: x17+x36 <=1 
C570: x17+x37-y17_37 <=1 
C571: x17+x39-y17_39 <=1 
C572: x17+x41-y17_41 <=1 
C573: x17+x43 <=1 
C574: x17+x44-y17_44 <=1 
C575: x17+x45 <=1 
C576: x17+x46-y17_46 <=1 
C577: x17+x47 <=1 
C578: x17+x48-y17_48 <=1 
C579: x17+x52 <=1 
C580: x17+x54 <=1 
C581: x17+x55 <=1 
C582: x17+x57 <=1 
C583: x17+x58-y17_58 <=1 
C584: x17+x60-y17_60 <=1 
C585: x18+x19-y18_19 <=1 
C586: x18+x22-y18_22 <=1 
C587: x18+x23 <=1 
C588: x18+x25-y18_25 <=1 
C589: x18+x26 <=1 
C590: x18+x31 <=1 
C591: x18+x32 <=1 
C592: x18+x35-y18_35 <=1 
C593: x18+x36 <=1 
C594: x18+x40-y18_40 <=1 
C595: x18+x42 <=1 
C596: x18+x44-y18_44 <=1 
C597: x18+x50-y18_50 <=1 
C598: x18+x51 <=1 
C599: x18+x54-y18_54 <=1 
C600: x18+x55-y18_55 <=1 
C601: x18+x56 <=1 
C602: x18+x58-y18_58 <=1 
C603: x18+x59 <=1 
C604: x18+x61 <=1 
C605: x18+x62 <=1 
C606: x19+x21 <=1 
C607: x19+x25 <=1 
C608: x19+x26 <=1 
C609: x19+x27-y19_27 <=1 
C610: x19+x29 <=1 
C611: x19+x30-y19_30 <=1 
C612: x19+x31-y19_31 <=1 
C613: x19+x32 <=1 
C614: x19+x33 <=1 
C615: x19+x34-y19_34 <=1 
C616: x19+x38-y19_38 <=1 
C617: x19+x39-y19_39 <=1 
C618: x19+x41 <=1 
C619: x19+x42 <=1 
C620: x19+x43-y19_43 <=1 
C621: x19+x45 <=1 
C622: x19+x46 <=1 
C623: x19+x47 <=1 
C624: x19+x48-y19_48 <=1 
C625: x19+x50-y19_50 <=1 
C626: x19+x53-y19_53 <=1 
C627: x19+x54 <=1 
C628: x19+x55 <=1 
C629: x19+x58 <=1 
C630: x19+x59-y19_59 <=1 
C631: x19+x60 <=1 
C632: x19+x62 <=1 
C633: x20+x23-y20_23 <=1 
C634: x20+x24 <=1 
C635: x20+x28-y20_28 <=1 
C636: x20+x29 <=1 
C637: x20+x30 <=1 
C638: x20+x32-y20_32 <=1 
C639: x20+x33-y20_33 <=1 
C640: x20+x34 <=1 
C641: x20+x35 <=1 
C642: x20+x38-y20_38 <=1 
C643: x20+x39 <=1 
C644: x20+x40-y20_40 <=1 
C645: x20+x43-y20_43 <=1 
C646: x20+x44-y20_44 <=1 
C647: x20+x48 <=1 
C648: x20+x49 <=1 
C649: x20+x50 <=1 
C650: x20+x51 <=1 
C651: x20+x52 <=1 
C652: x20+x54 <=1 
C653: x20+x56 <=1 
C654: x20+x59 <=1 
C655: x20+x60-y20_60 <=1 
C656: x20+x62 <=1 
C657: x21+x23 <=1 
C658: x21+x24-y21_24 <=1 
C659: x21+x26-y21_26 <=1 
C660: x21+x28-y21_28 <=1 
C661: x21+x30-y21_30 <=1 
C662: x21+x31 <=1 
C663: x21+x35 <=1 
C664: x21+x36-y21_36 <=1 
C665: x21+x38 <=1 
C666: x21+x40-y21_40 <=1 
C667: x21+x41-y21_41 <=1 
C668: x21+x42-y21_42 <=1 
C669: x21+x44 <=1 
C670: x21+x45-y21_45 <=1 
C671: x21+x48 <=1 
C672: x21+x51 <=1 
C673: x21+x53-y21_53 <=1 
C674: x21+x56-y21_56 <=1 
C675: x21+x60 <=1 
C676: x21+x62-y21_62 <=1 
C677: x22+x24 <=1 
C678: x22+x26 <=1 
C679: x22+x28-y22_28 <=1 
C680: x22+x30 <=1 
C681: x22+x31 <=1 
C682: x22+x32-y22_32 <=1 
C683: x22+x33 <=1 
C684: x22+x34 <=1 
C685: x22+x35-y22_35 <=1 
C686: x22+x36-y22_36 <=1 
C687: x22+x37-y22_37 <=1 
C688: x22+x38-y22_38 <=1 
C689: x22+x39-y22_39 <=1 
C690: x22+x40-y22_40 <=1 
C691: x22+x41 <=1 
C692: x22+x43 <=1 
C693: x22+x44 <=1 
C694: x22+x45-y22_45 <=1 
C695: x22+x48 <=1 
C696: x22+x51 <=1 
C697: x22+x52 <=1 
C698: x22+x53 <=1 
C699: x22+x58-y22_58 <=1 
C700: x22+x60 <=1 
C701: x22+x61-y22_61 <=1 
C702: x23+x24 <=1 
C703: x23+x25 <=1 
C704: x23+x26 <=1 
C705: x23+x27-y23_27 <=1 
C706: x23+x30-y23_30 <=1 
C707: x23+x31-y23_31 <=1 
C708: x23+x32-y23_32 <=1 
C709: x23+x34 <=1 
C710: x23+x38 <=1 
C711: x23+x39 <=1 
C712: x23+x41 <=1 
C713: x23+x42-y23_42 <=1 
C714: x23+x44 <=1 
C715: x23+x46 <=1 
C716: x23+x47-y23_47 <=1 
C717: x23+x48-y23_48 <=1 
C718: x23+x49-y23_49 <=1 
C719: x23+x50 <=1 
C720: x23+x51 <=1 
C721: x23+x52-y23_52 <=1 
C722: x23+x54-y23_54 <=1 
C723: x23+x55-y23_55 <=1 
C724: x23+x56-y23_56 <=1 
C725: x23+x57 <=1 
C726: x23+x58-y23_58 <=1 
C727: x23+x62 <=1 
C728: x24+x25 <=1 
C729: x24+x27-y24_27 <=1 
C730: x24+x28 <=1 
C731: x24+x29-y24_29 <=1 
C732: x24+x30 <=1 
C733: x24+x32-y24_32 <=1 
C734: x24+x36-y24_36 <=1 
C735: x24+x37-y24_37 <=1 
C736: x24+x38 <=1 
C737: x24+x39-y24_39 <=1 
C738: x24+x40-y24_40 <=1 
C739: x24+x43 <=1 
C740: x24+x45-y24_45 <=1 
C741: x24+x46 <=1 
C742: x24+x48 <=1 
C743: x24+x51 <=1 
C744: x24+x53 <=1 
C745: x24+x54-y24_54 <=1 
C746: x24+x57 <=1 
C747: x24+x58-y24_58 <=1 
C748: x24+x60 <=1 
C749: x25+x29-y25_29 <=1 
C750: x25+x30-y25_30 <=1 
C751: x25+x32-y25_32 <=1 
C752: x25+x33 <=1 
C753: x25+x37-y25_37 <=1 
C754: x25+x38 <=1 
C755: x25+x39-y25_39 <=1 
C756: x25+x40-y25_40 <=1 
C757: x25+x41-y25_41 <=1 
C758: x25+x43 <=1 
C759: x25+x45 <=1 
C760: x25+x47 <=1 
C761: x25+x48-y25_48 <=1 
C762: x25+x50-y25_50 <=1 
C763: x25+x51-y25_51 <=1 
C764: x25+x53-y25_53 <=1 
C765: x25+x54-y25_54 <=1 
C766: x25+x55 <=1 
C767: x25+x56 <=1 
C768: x25+x58-y25_58 <=1 
C769: x26+x28 <=1 
C770: x26+x29 <=1 
C771: x26+x31-y26_31 <=1 
C772: x26+x32-y26_32 <=1 
C773: x26+x33-y26_33 <=1 
C774: x26+x35-y26_35 <=1 
C775: x26+x36 <=1 
C776: x26+x39-y26_39 <=1 
C777: x26+x42 <=1 
C778: x26+x45-y26_45 <=1 
C779: x26+x49 <=1 
C780: x26+x52-y26_52 <=1 
C781: x26+x56 <=1 
C782: x26+x57-y26_57 <=1 
C783: x26+x58 <=1 
C784: x26+x59-y26_59 <=1 
C785: x26+x60-y26_60 <=1 
C786: x26+x62-y26_62 <=1 
C787: x27+x28-y27_28 <=1 
C788: x27+x29 <=1 
C789: x27+x30 <=1 
C790: x27+x31 <=1 
C791: x27+x32 <=1 
C792: x27+x33-y27_33 <=1 
C793: x27+x35 <=1 
C794: x27+x36-y27_36 <=1 
C795: x27+x37-y27_37 <=1 
C796: x27+x38-y27_38 <=1 
C797: x27+x41 <=1 
C798: x27+x43-y27_43 <=1 
C799: x27+x44 <=1 
C800: x27+x48-y27_48 <=1 
C801: x27+x49-y27_49 <=1 
C802: x27+x52-y27_52 <=1 
C803: x27+x54 <=1 
C804: x27+x56 <=1 
C805: x27+x58 <=1 
C806: x27+x60 <=1 
C807: x28+x29-y28_29 <=1 
C808: x28+x30 <=1 
C809: x28+x31-y28_31 <=1 
C810: x28+x32-y28_32 <=1 
C811: x28+x33-y28_33 <=1 
C812: x28+x34 <=1 
C813: x28+x35-y28_35 <=1 
C814: x28+x36-y28_36 <=1 
C815: x28+x37-y28_37 <=1 
C816: x28+x39 <=1 
C817: x28+x40-y28_40 <=1 
C818: x28+x43-y28_43 <=1 
C819: x28+x44-y28_44 <=1 
C820: x28+x45 <=1 
C821: x28+x46 <=1 
C822: x28+x48-y28_48 <=1 
C823: x28+x49 <=1 
C824: x28+x50 <=1 
C825: x28+x51-y28_51 <=1 
C826: x28+x54-y28_54 <=1 
C827: x28+x55-y28_55 <=1 
C828: x28+x58-y28_58 <=1 
C829: x28+x59 <=1 
C830: x28+x62-y28_62 <=1 
C831: x29+x31 <=1 
C832: x29+x34-y29_34 <=1 
C833: x29+x35-y29_35 <=1 
C834: x29+x36-y29_36 <=1 
C835: x29+x37 <=1 
C836: x29+x42-y29_42 <=1 
C837: x29+x43-y29_43 <=1 
C838: x29+x44 <=1 
C839: x29+x45 <=1 
C840: x29+x46-y29_46 <=1 
C841: x29+x49-y29_49 <=1 
C842: x29+x50-y29_50 <=1 
C843: x29+x53-y29_53 <=1 
C844: x29+x54 <=1 
C845: x29+x56 <=1 
C846: x29+x57 <=1 
C847: x29+x58 <=1 
C848: x29+x60-y29_60 <=1 
C849: x30+x31 <=1 
C850: x30+x39-y30_39 <=1 
C851: x30+x41 <=1 
C852: x30+x42-y30_42 <=1 
C853: x30+x43-y30_43 <=1 
C854: x30+x44-y30_44 <=1 
C855: x30+x45 <=1 
C856: x30+x46-y30_46 <=1 
C857: x30+x47-y30_47 <=1 
C858: x30+x48 <=1 
C859: x30+x49-y30_49 <=1 
C860: x30+x50 <=1 
C861: x30+x51-y30_51 <=1 
C862: x30+x53-y30_53 <=1 
C863: x30+x55-y30_55 <=1 
C864: x30+x57 <=1 
C865: x30+x58-y30_58 <=1 
C866: x30+x60-y30_60 <=1 
C867: x31+x32-y31_32 <=1 
C868: x31+x33 <=1 
C869: x31+x34-y31_34 <=1 
C870: x31+x38 <=1 
C871: x31+x40 <=1 
C872: x31+x43 <=1 
C873: x31+x44-y31_44 <=1 
C874: x31+x46 <=1 
C875: x31+x47-y31_47 <=1 
C876: x31+x48-y31_48 <=1 
C877: x31+x49 <=1 
C878: x31+x51-y31_51 <=1 
C879: x31+x52-y31_52 <=1 
C880: x31+x53-y31_53 <=1 
C881: x31+x54-y31_54 <=1 
C882: x31+x55-y31_55 <=1 
C883: x31+x58 <=1 
C884: x31+x60 <=1 
C885: x32+x33-y32_33 <=1 
C886: x32+x35-y32_35 <=1 
C887: x32+x36 <=1 
C888: x32+x37 <=1 
C889: x32+x38 <=1 
C890: x32+x39 <=1 
C891: x32+x40-y32_40 <=1 
C892: x32+x41-y32_41 <=1 
C893: x32+x42 <=1 
C894: x32+x43 <=1 
C895: x32+x45 <=1 
C896: x32+x47-y32_47 <=1 
C897: x32+x48 <=1 
C898: x32+x49-y32_49 <=1 
C899: x32+x50 <=1 
C900: x32+x52-y32_52 <=1 
C901: x32+x56-y32_56 <=1 
C902: x32+x58-y32_58 <=1 
C903: x32+x59-y32_59 <=1 
C904: x32+x61-y32_61 <=1 
C905: x32+x62-y32_62 <=1 
C906: x33+x35 <=1 
C907: x33+x36 <=1 
C908: x33+x37 <=1 
C909: x33+x38 <=1 
C910: x33+x40 <=1 
C911: x33+x41 <=1 
C912: x33+x42-y33_42 <=1 
C913: x33+x44 <=1 
C914: x33+x45-y33_45 <=1 
C915: x33+x46 <=1 
C916: x33+x47-y33_47 <=1 
C917: x33+x52-y33_52 <=1 
C918: x33+x53-y33_53 <=1 
C919: x33+x55 <=1 
C920: x33+x56-y33_56 <=1 
C921: x33+x57-y33_57 <=1 
C922: x33+x59-y33_59 <=1 
C923: x33+x60 <=1 
C924: x33+x62-y33_62 <=1 
C925: x34+x36-y34_36 <=1 
C926: x34+x38 <=1 
C927: x34+x39-y34_39 <=1 
C928: x34+x40-y34_40 <=1 
C929: x34+x41-y34_41 <=1 
C930: x34+x42 <=1 
C931: x34+x44 <=1 
C932: x34+x45-y34_45 <=1 
C933: x34+x46 <=1 
C934: x34+x47-y34_47 <=1 
C935: x34+x49-y34_49 <=1 
C936: x34+x50-y34_50 <=1 
C937: x34+x52 <=1 
C938: x34+x53-y34_53 <=1 
C939: x34+x56 <=1 
C940: x34+x58 <=1 
C941: x34+x59-y34_59 <=1 
C942: x34+x60-y34_60 <=1 
C943: x34+x61 <=1 
C944: x35+x36-y35_36 <=1 
C945: x35+x37 <=1 
C946: x35+x38-y35_38 <=1 
C947: x35+x39 <=1 
C948: x35+x40-y35_40 <=1 
C949: x35+x42 <=1 
C950: x35+x43-y35_43 <=1 
C951: x35+x44-y35_44 <=1 
C952: x35+x46 <=1 
C953: x35+x47-y35_47 <=1 
C954: x35+x48 <=1 
C955: x35+x51 <=1 
C956: x35+x52 <=1 
C957: x35+x54-y35_54 <=1 
C958: x35+x55 <=1 
C959: x35+x59 <=1 
C960: x35+x60 <=1 
C961: x35+x61-y35_61 <=1 
C962: x35+x62 <=1 
C963: x36+x37-y36_37 <=1 
C964: x36+x39 <=1 
C965: x36+x40-y36_40 <=1 
C966: x36+x41 <=1 
C967: x36+x42 <=1 
C968: x36+x44 <=1 
C969: x36+x47 <=1 
C970: x36+x48 <=1 
C971: x36+x51-y36_51 <=1 
C972: x36+x52 <=1 
C973: x36+x54 <=1 
C974: x36+x55 <=1 
C975: x36+x58-y36_58 <=1 
C976: x36+x59-y36_59 <=1 
C977: x36+x60-y36_60 <=1 
C978: x36+x61 <=1 
C979: x37+x38-y37_38 <=1 
C980: x37+x40 <=1 
C981: x37+x45 <=1 
C982: x37+x46 <=1 
C983: x37+x47-y37_47 <=1 
C984: x37+x48-y37_48 <=1 
C985: x37+x54 <=1 
C986: x37+x55 <=1 
C987: x37+x58-y37_58 <=1 
C988: x37+x61 <=1 
C989: x38+x45 <=1 
C990: x38+x47-y38_47 <=1 
C991: x38+x49-y38_49 <=1 
C992: x38+x50 <=1 
C993: x38+x51 <=1 
C994: x38+x52-y38_52 <=1 
C995: x38+x54 <=1 
C996: x38+x57-y38_57 <=1 
C997: x38+x58 <=1 
C998: x38+x59 <=1 
C999: x38+x60 <=1 
C1000: x38+x62-y38_62 <=1 
C1001: x39+x40-y39_40 <=1 
C1002: x39+x42 <=1 
C1003: x39+x43 <=1 
C1004: x39+x44 <=1 
C1005: x39+x45 <=1 
C1006: x39+x46 <=1 
C1007: x39+x47-y39_47 <=1 
C1008: x39+x49-y39_49 <=1 
C1009: x39+x50 <=1 
C1010: x39+x52-y39_52 <=1 
C1011: x39+x53 <=1 
C1012: x39+x54-y39_54 <=1 
C1013: x39+x56-y39_56 <=1 
C1014: x39+x57 <=1 
C1015: x39+x58 <=1 
C1016: x39+x60 <=1 
C1017: x39+x61 <=1 
C1018: x39+x62 <=1 
C1019: x40+x41-y40_41 <=1 
C1020: x40+x42 <=1 
C1021: x40+x45 <=1 
C1022: x40+x46 <=1 
C1023: x40+x48-y40_48 <=1 
C1024: x40+x49-y40_49 <=1 
C1025: x40+x51-y40_51 <=1 
C1026: x40+x54-y40_54 <=1 
C1027: x40+x55-y40_55 <=1 
C1028: x40+x58 <=1 
C1029: x40+x59 <=1 
C1030: x40+x60 <=1 
C1031: x40+x61 <=1 
C1032: x40+x62-y40_62 <=1 
C1033: x41+x42-y41_42 <=1 
C1034: x41+x43-y41_43 <=1 
C1035: x41+x44-y41_44 <=1 
C1036: x41+x46-y41_46 <=1 
C1037: x41+x47 <=1 
C1038: x41+x48 <=1 
C1039: x41+x50-y41_50 <=1 
C1040: x41+x55 <=1 
C1041: x41+x56 <=1 
C1042: x41+x57-y41_57 <=1 
C1043: x41+x58 <=1 
C1044: x42+x43-y42_43 <=1 
C1045: x42+x45-y42_45 <=1 
C1046: x42+x46-y42_46 <=1 
C1047: x42+x47-y42_47 <=1 
C1048: x42+x49-y42_49 <=1 
C1049: x42+x50-y42_50 <=1 
C1050: x42+x52 <=1 
C1051: x42+x53 <=1 
C1052: x42+x55-y42_55 <=1 
C1053: x42+x56-y42_56 <=1 
C1054: x42+x57 <=1 
C1055: x42+x58 <=1 
C1056: x42+x60-y42_60 <=1 
C1057: x42+x61-y42_61 <=1 
C1058: x43+x48-y43_48 <=1 
C1059: x43+x49 <=1 
C1060: x43+x51-y43_51 <=1 
C1061: x43+x52-y43_52 <=1 
C1062: x43+x54 <=1 
C1063: x43+x55-y43_55 <=1 
C1064: x43+x56 <=1 
C1065: x43+x58 <=1 
C1066: x43+x59-y43_59 <=1 
C1067: x43+x60-y43_60 <=1 
C1068: x43+x61-y43_61 <=1 
C1069: x44+x46-y44_46 <=1 
C1070: x44+x47 <=1 
C1071: x44+x50 <=1 
C1072: x44+x51 <=1 
C1073: x44+x52-y44_52 <=1 
C1074: x44+x53-y44_53 <=1 
C1075: x44+x54 <=1 
C1076: x44+x56 <=1 
C1077: x44+x57 <=1 
C1078: x44+x58 <=1 
C1079: x44+x60 <=1 
C1080: x44+x61-y44_61 <=1 
C1081: x44+x62-y44_62 <=1 
C1082: x45+x49 <=1 
C1083: x45+x51-y45_51 <=1 
C1084: x45+x52-y45_52 <=1 
C1085: x45+x53 <=1 
C1086: x45+x54-y45_54 <=1 
C1087: x45+x55-y45_55 <=1 
C1088: x45+x56-y45_56 <=1 
C1089: x45+x59 <=1 
C1090: x45+x61 <=1 
C1091: x45+x62 <=1 
C1092: x46+x49 <=1 
C1093: x46+x50 <=1 
C1094: x46+x52 <=1 
C1095: x46+x53 <=1 
C1096: x46+x55 <=1 
C1097: x46+x57-y46_57 <=1 
C1098: x46+x58 <=1 
C1099: x46+x62 <=1 
C1100: x47+x49-y47_49 <=1 
C1101: x47+x51 <=1 
C1102: x47+x52-y47_52 <=1 
C1103: x47+x54 <=1 
C1104: x47+x55-y47_55 <=1 
C1105: x47+x56-y47_56 <=1 
C1106: x47+x57 <=1 
C1107: x47+x60-y47_60 <=1 
C1108: x48+x50-y48_50 <=1 
C1109: x48+x51 <=1 
C1110: x48+x52-y48_52 <=1 
C1111: x48+x53-y48_53 <=1 
C1112: x48+x59 <=1 
C1113: x48+x60 <=1 
C1114: x48+x61 <=1 
C1115: x49+x51 <=1 
C1116: x49+x55 <=1 
C1117: x49+x56-y49_56 <=1 
C1118: x49+x58-y49_58 <=1 
C1119: x49+x59-y49_59 <=1 
C1120: x49+x60 <=1 
C1121: x50+x51 <=1 
C1122: x50+x52-y50_52 <=1 
C1123: x50+x55 <=1 
C1124: x50+x57-y50_57 <=1 
C1125: x50+x58 <=1 
C1126: x50+x60 <=1 
C1127: x51+x52 <=1 
C1128: x51+x53-y51_53 <=1 
C1129: x51+x54 <=1 
C1130: x51+x56 <=1 
C1131: x51+x59-y51_59 <=1 
C1132: x52+x53-y52_53 <=1 
C1133: x52+x54-y52_54 <=1 
C1134: x52+x57-y52_57 <=1 
C1135: x52+x58 <=1 
C1136: x52+x61-y52_61 <=1 
C1137: x53+x56 <=1 
C1138: x53+x60 <=1 
C1139: x53+x61-y53_61 <=1 
C1140: x53+x62-y53_62 <=1 
C1141: x54+x57-y54_57 <=1 
C1142: x54+x58 <=1 
C1143: x54+x59 <=1 
C1144: x54+x61-y54_61 <=1 
C1145: x54+x62 <=1 
C1146: x55+x58-y55_58 <=1 
C1147: x55+x60 <=1 
C1148: x55+x61-y55_61 <=1 
C1149: x55+x62 <=1 
C1150: x56+x59 <=1 
C1151: x56+x61-y56_61 <=1 
C1152: x56+x62 <=1 
C1153: x57+x58 <=1 
C1154: x57+x59-y57_59 <=1 
C1155: x57+x60 <=1 
C1156: x57+x61 <=1 
C1157: x58+x59-y58_59 <=1 
C1158: x58+x60 <=1 
C1159: x58+x61 <=1 
C1160: x59+x62-y59_62 <=1 
C1161: x60+x61-y60_61 <=1 
C1162: x61+x62-y61_62 <=1 

binary
x0
x1
x2
x3
x4
x5
x6
x7
x8
x9
x10
x11
x12
x13
x14
x15
x16
x17
x18
x19
x20
x21
x22
x23
x24
x25
x26
x27
x28
x29
x30
x31
x32
x33
x34
x35
x36
x37
x38
x39
x40
x41
x42
x43
x44
x45
x46
x47
x48
x49
x50
x51
x52
x53
x54
x55
x56
x57
x58
x59
x60
x61
x62
