problem_generation/data/GISP/train/er_n=63_m=1162_p=0.60_SET2_setparam=100.00_alpha=0.50_111.sol
objective value:                                 1272
x4                                                  1 	(obj:100)
x5                                                  1 	(obj:100)
x21                                                 1 	(obj:100)
x25                                                 1 	(obj:100)
x27                                                 1 	(obj:100)
x34                                                 1 	(obj:100)
x36                                                 1 	(obj:100)
x37                                                 1 	(obj:100)
x49                                                 1 	(obj:100)
x50                                                 1 	(obj:100)
x53                                                 1 	(obj:100)
x57                                                 1 	(obj:100)
x59                                                 1 	(obj:100)
y21_36                                              1 	(obj:-1)
y5_59                                               1 	(obj:-1)
y4_49                                               1 	(obj:-1)
y36_37                                              1 	(obj:-1)
y50_57                                              1 	(obj:-1)
y4_53                                               1 	(obj:-1)
y4_57                                               1 	(obj:-1)
y57_59                                              1 	(obj:-1)
y27_36                                              1 	(obj:-1)
y34_53                                              1 	(obj:-1)
y49_59                                              1 	(obj:-1)
y27_49                                              1 	(obj:-1)
y25_37                                              1 	(obj:-1)
y21_53                                              1 	(obj:-1)
y25_50                                              1 	(obj:-1)
y36_59                                              1 	(obj:-1)
y5_53                                               1 	(obj:-1)
y5_34                                               1 	(obj:-1)
y5_37                                               1 	(obj:-1)
y4_50                                               1 	(obj:-1)
y4_27                                               1 	(obj:-1)
y4_36                                               1 	(obj:-1)
y34_50                                              1 	(obj:-1)
y34_59                                              1 	(obj:-1)
y27_37                                              1 	(obj:-1)
y34_36                                              1 	(obj:-1)
y25_53                                              1 	(obj:-1)
y34_49                                              1 	(obj:-1)
